n_nodes = 590;
M = 6701;
n_domains = 18;
domain_link_weights = [|0,6701,6701,358,6701,6701,6701,6701,6701,6701,6701,6701,6701,6701,6701,6701,6701,6701|6701,0,6701,6701,6701,479,344,264,6701,6701,6701,6701,6701,6701,6701,6701,6701,6701|6701,6701,0,6701,6701,6701,6701,6701,6701,972,6701,6701,6701,6701,1788,6701,6701,6701|6701,6701,6701,0,6701,6701,6701,6701,6701,6701,6701,6701,6701,6701,6701,6701,6701,6701|6701,6701,6701,6701,0,364,358,173,6701,6701,6701,6701,6701,6701,6701,6701,6701,6223|6701,6701,6701,6701,6701,0,6701,6701,6701,6701,6701,6701,6701,6701,6701,6701,6701,6701|6701,6701,6701,6701,6701,6701,0,6701,5585,6701,6701,6701,6701,6701,6701,6701,6701,6701|6701,6701,6701,6701,6701,6701,6701,0,6701,6701,6701,6701,6701,6701,6701,6701,6701,6701|6701,6701,6701,6701,6701,6701,6701,6701,0,6701,6701,6701,6701,6701,6701,1148,556,350|6701,6701,6701,6701,6701,6701,6701,6701,6701,0,6701,6701,6701,2562,6701,943,6701,852|6701,6701,6701,6701,6701,6701,6701,6701,6701,6701,0,1141,6701,6701,6701,2795,6701,6701|6701,6701,6701,6701,6701,6701,6701,6701,6701,6701,6701,0,492,6701,6701,2963,6701,3855|6701,6701,6701,6701,6701,6701,6701,6701,6701,6701,6701,6701,0,575,1995,2807,6701,6701|6701,6701,6701,6701,6701,6701,6701,6701,6701,6701,6701,6701,6701,0,1425,6701,6701,6701|6701,6701,6701,6701,6701,6701,6701,6701,6701,6701,6701,6701,6701,6701,0,1291,6701,1872|6701,6701,6701,6701,6701,6701,6701,6701,6701,6701,6701,6701,6701,6701,6701,0,704,916|6701,6701,6701,6701,6701,6701,6701,6701,6701,6701,6701,6701,6701,6701,6701,6701,0,6701|6701,6701,6701,6701,6701,6701,6701,6701,6701,6701,6701,6701,6701,6701,6701,6701,6701,0|];
num_node_links = 1175;
node_links = [|1,3|1,4|2,6|2,7|2,8|3,10|3,15|5,6|5,7|5,8|5,18|7,9|9,16|9,17|9,18|10,14|10,16|10,18|11,12|11,16|12,13|12,16|12,18|13,14|13,15|13,16|14,15|15,16|15,18|16,17|16,18|1,19|19,1|1,40|40,1|1,44|44,1|1,47|47,1|1,69|69,1|1,95|95,1|1,118|118,1|1,124|124,1|1,178|178,1|1,221|221,1|1,227|227,1|1,249|249,1|1,253|253,1|1,261|261,1|1,274|274,1|1,283|283,1|1,301|301,1|1,328|328,1|1,336|336,1|1,364|364,1|1,390|390,1|1,405|405,1|1,407|407,1|1,409|409,1|1,412|412,1|1,458|458,1|1,518|518,1|1,529|529,1|1,535|535,1|1,537|537,1|1,552|552,1|1,562|562,1|2,20|20,2|2,41|41,2|2,78|78,2|2,121|121,2|2,129|129,2|2,195|195,2|2,217|217,2|2,219|219,2|2,225|225,2|2,239|239,2|2,250|250,2|2,264|264,2|2,271|271,2|2,275|275,2|2,299|299,2|2,308|308,2|2,332|332,2|2,355|355,2|2,356|356,2|2,406|406,2|2,408|408,2|2,419|419,2|2,439|439,2|2,448|448,2|2,452|452,2|2,456|456,2|2,460|460,2|2,478|478,2|2,498|498,2|2,501|501,2|2,553|553,2|2,579|579,2|3,21|21,3|3,58|58,3|3,59|59,3|3,96|96,3|3,98|98,3|3,101|101,3|3,136|136,3|3,141|141,3|3,215|215,3|3,220|220,3|3,232|232,3|3,235|235,3|3,240|240,3|3,243|243,3|3,292|292,3|3,300|300,3|3,318|318,3|3,353|353,3|3,363|363,3|3,371|371,3|3,400|400,3|3,404|404,3|3,437|437,3|3,440|440,3|3,443|443,3|3,470|470,3|3,471|471,3|3,474|474,3|3,509|509,3|3,514|514,3|3,569|569,3|3,585|585,3|4,22|22,4|4,52|52,4|4,54|54,4|4,55|55,4|4,66|66,4|4,116|116,4|4,126|126,4|4,135|135,4|4,154|154,4|4,165|165,4|4,174|174,4|4,184|184,4|4,202|202,4|4,223|223,4|4,263|263,4|4,269|269,4|4,298|298,4|4,307|307,4|4,323|323,4|4,329|329,4|4,333|333,4|4,358|358,4|4,366|366,4|4,382|382,4|4,383|383,4|4,384|384,4|4,459|459,4|4,468|468,4|4,500|500,4|4,532|532,4|4,534|534,4|4,551|551,4|5,23|23,5|5,62|62,5|5,63|63,5|5,72|72,5|5,87|87,5|5,109|109,5|5,113|113,5|5,122|122,5|5,144|144,5|5,152|152,5|5,214|214,5|5,237|237,5|5,281|281,5|5,284|284,5|5,305|305,5|5,325|325,5|5,389|389,5|5,424|424,5|5,427|427,5|5,436|436,5|5,447|447,5|5,449|449,5|5,457|457,5|5,476|476,5|5,490|490,5|5,494|494,5|5,527|527,5|5,556|556,5|5,564|564,5|5,576|576,5|5,580|580,5|5,589|589,5|6,24|24,6|6,65|65,6|6,71|71,6|6,90|90,6|6,104|104,6|6,138|138,6|6,198|198,6|6,203|203,6|6,254|254,6|6,282|282,6|6,297|297,6|6,322|322,6|6,331|331,6|6,348|348,6|6,354|354,6|6,360|360,6|6,375|375,6|6,393|393,6|6,477|477,6|6,480|480,6|6,488|488,6|6,512|512,6|6,513|513,6|6,516|516,6|6,522|522,6|6,539|539,6|6,547|547,6|6,563|563,6|6,571|571,6|6,583|583,6|6,587|587,6|6,590|590,6|7,25|25,7|7,42|42,7|7,46|46,7|7,64|64,7|7,75|75,7|7,94|94,7|7,145|145,7|7,149|149,7|7,153|153,7|7,160|160,7|7,170|170,7|7,185|185,7|7,222|222,7|7,246|246,7|7,257|257,7|7,258|258,7|7,260|260,7|7,270|270,7|7,337|337,7|7,378|378,7|7,398|398,7|7,433|433,7|7,446|446,7|7,450|450,7|7,461|461,7|7,465|465,7|7,492|492,7|7,520|520,7|7,543|543,7|7,554|554,7|7,558|558,7|7,574|574,7|8,26|26,8|8,132|132,8|8,137|137,8|8,143|143,8|8,150|150,8|8,168|168,8|8,192|192,8|8,211|211,8|8,228|228,8|8,234|234,8|8,286|286,8|8,288|288,8|8,294|294,8|8,313|313,8|8,340|340,8|8,362|362,8|8,365|365,8|8,373|373,8|8,397|397,8|8,401|401,8|8,413|413,8|8,416|416,8|8,430|430,8|8,489|489,8|8,495|495,8|8,496|496,8|8,497|497,8|8,510|510,8|8,519|519,8|8,525|525,8|8,555|555,8|8,557|557,8|9,27|27,9|9,38|38,9|9,53|53,9|9,70|70,9|9,115|115,9|9,133|133,9|9,140|140,9|9,146|146,9|9,169|169,9|9,180|180,9|9,209|209,9|9,226|226,9|9,242|242,9|9,252|252,9|9,314|314,9|9,315|315,9|9,330|330,9|9,334|334,9|9,349|349,9|9,387|387,9|9,396|396,9|9,415|415,9|9,417|417,9|9,418|418,9|9,420|420,9|9,466|466,9|9,483|483,9|9,491|491,9|9,493|493,9|9,499|499,9|9,540|540,9|9,578|578,9|10,28|28,10|10,51|51,10|10,74|74,10|10,83|83,10|10,86|86,10|10,92|92,10|10,111|111,10|10,114|114,10|10,125|125,10|10,142|142,10|10,159|159,10|10,177|177,10|10,190|190,10|10,193|193,10|10,194|194,10|10,218|218,10|10,241|241,10|10,247|247,10|10,268|268,10|10,277|277,10|10,295|295,10|10,316|316,10|10,346|346,10|10,372|372,10|10,394|394,10|10,395|395,10|10,431|431,10|10,435|435,10|10,473|473,10|10,479|479,10|10,505|505,10|10,550|550,10|11,29|29,11|11,45|45,11|11,50|50,11|11,73|73,11|11,76|76,11|11,99|99,11|11,100|100,11|11,112|112,11|11,119|119,11|11,171|171,11|11,189|189,11|11,197|197,11|11,205|205,11|11,208|208,11|11,212|212,11|11,213|213,11|11,306|306,11|11,341|341,11|11,347|347,11|11,392|392,11|11,402|402,11|11,403|403,11|11,434|434,11|11,463|463,11|11,464|464,11|11,506|506,11|11,521|521,11|11,544|544,11|11,561|561,11|11,568|568,11|11,572|572,11|11,575|575,11|12,30|30,12|12,48|48,12|12,49|49,12|12,60|60,12|12,67|67,12|12,107|107,12|12,120|120,12|12,162|162,12|12,167|167,12|12,172|172,12|12,186|186,12|12,199|199,12|12,200|200,12|12,201|201,12|12,207|207,12|12,230|230,12|12,231|231,12|12,233|233,12|12,248|248,12|12,267|267,12|12,374|374,12|12,376|376,12|12,377|377,12|12,386|386,12|12,388|388,12|12,421|421,12|12,423|423,12|12,425|425,12|12,429|429,12|12,432|432,12|12,444|444,12|12,548|548,12|13,31|31,13|13,37|37,13|13,43|43,13|13,91|91,13|13,93|93,13|13,97|97,13|13,102|102,13|13,128|128,13|13,134|134,13|13,173|173,13|13,204|204,13|13,259|259,13|13,278|278,13|13,285|285,13|13,311|311,13|13,324|324,13|13,338|338,13|13,339|339,13|13,359|359,13|13,368|368,13|13,454|454,13|13,503|503,13|13,508|508,13|13,515|515,13|13,524|524,13|13,531|531,13|13,533|533,13|13,536|536,13|13,541|541,13|13,560|560,13|13,566|566,13|13,586|586,13|14,32|32,14|14,68|68,14|14,77|77,14|14,85|85,14|14,89|89,14|14,110|110,14|14,117|117,14|14,148|148,14|14,155|155,14|14,166|166,14|14,175|175,14|14,179|179,14|14,255|255,14|14,280|280,14|14,296|296,14|14,302|302,14|14,319|319,14|14,335|335,14|14,343|343,14|14,351|351,14|14,381|381,14|14,399|399,14|14,414|414,14|14,455|455,14|14,469|469,14|14,485|485,14|14,507|507,14|14,517|517,14|14,538|538,14|14,567|567,14|15,33|33,15|15,61|61,15|15,84|84,15|15,105|105,15|15,108|108,15|15,130|130,15|15,147|147,15|15,151|151,15|15,163|163,15|15,176|176,15|15,182|182,15|15,183|183,15|15,196|196,15|15,206|206,15|15,210|210,15|15,236|236,15|15,238|238,15|15,251|251,15|15,276|276,15|15,289|289,15|15,303|303,15|15,310|310,15|15,350|350,15|15,367|367,15|15,438|438,15|15,451|451,15|15,453|453,15|15,462|462,15|15,472|472,15|15,486|486,15|15,502|502,15|15,584|584,15|16,34|34,16|16,80|80,16|16,81|81,16|16,88|88,16|16,127|127,16|16,158|158,16|16,164|164,16|16,181|181,16|16,191|191,16|16,224|224,16|16,265|265,16|16,273|273,16|16,291|291,16|16,304|304,16|16,309|309,16|16,321|321,16|16,327|327,16|16,342|342,16|16,344|344,16|16,380|380,16|16,385|385,16|16,391|391,16|16,410|410,16|16,422|422,16|16,475|475,16|16,504|504,16|16,530|530,16|16,545|545,16|16,582|582,16|16,588|588,16|17,35|35,17|17,39|39,17|17,57|57,17|17,79|79,17|17,82|82,17|17,103|103,17|17,139|139,17|17,156|156,17|17,157|157,17|17,161|161,17|17,245|245,17|17,256|256,17|17,262|262,17|17,272|272,17|17,279|279,17|17,287|287,17|17,290|290,17|17,320|320,17|17,361|361,17|17,379|379,17|17,411|411,17|17,426|426,17|17,467|467,17|17,484|484,17|17,487|487,17|17,523|523,17|17,528|528,17|17,546|546,17|17,559|559,17|17,570|570,17|17,577|577,17|17,581|581,17|18,36|36,18|18,56|56,18|18,106|106,18|18,123|123,18|18,131|131,18|18,187|187,18|18,188|188,18|18,216|216,18|18,229|229,18|18,244|244,18|18,266|266,18|18,293|293,18|18,312|312,18|18,317|317,18|18,326|326,18|18,345|345,18|18,352|352,18|18,357|357,18|18,369|369,18|18,370|370,18|18,428|428,18|18,441|441,18|18,442|442,18|18,445|445,18|18,481|481,18|18,482|482,18|18,511|511,18|18,526|526,18|18,542|542,18|18,549|549,18|18,565|565,18|18,573|573,18|];
nodes = [|1,9,0,0,0,0,1,1|2,9,0,0,0,0,1,2|3,9,0,0,0,0,1,3|4,9,0,0,0,0,1,4|5,9,0,0,0,0,1,5|6,9,0,0,0,0,1,6|7,9,0,0,0,0,1,7|8,9,0,0,0,0,1,8|9,9,0,0,0,0,1,9|10,9,0,0,0,0,1,10|11,9,0,0,0,0,1,11|12,9,0,0,0,0,1,12|13,9,0,0,0,0,1,13|14,9,0,0,0,0,1,14|15,9,0,0,0,0,1,15|16,9,0,0,0,0,1,16|17,9,0,0,0,0,1,17|18,9,0,0,0,0,1,18|19,10,0,0,0,0,1,1|20,10,0,0,0,0,1,2|21,10,0,0,0,0,1,3|22,10,0,0,0,0,1,4|23,10,0,0,0,0,1,5|24,10,0,0,0,0,1,6|25,10,0,0,0,0,1,7|26,10,0,0,0,0,1,8|27,10,0,0,0,0,1,9|28,10,0,0,0,0,1,10|29,10,0,0,0,0,1,11|30,10,0,0,0,0,1,12|31,10,0,0,0,0,1,13|32,10,0,0,0,0,1,14|33,10,0,0,0,0,1,15|34,10,0,0,0,0,1,16|35,10,0,0,0,0,1,17|36,10,0,0,0,0,1,18|37,2,0,0,0,0,1,13|38,1,0,0,0,0,1,9|39,4,0,0,0,0,1,17|40,1,0,0,0,0,1,1|41,1,0,0,0,0,1,2|42,1,0,0,0,0,1,7|43,5,0,0,0,0,1,13|44,5,0,0,0,0,1,1|45,3,0,0,0,0,1,11|46,4,0,0,0,0,1,7|47,2,0,0,0,0,1,1|48,2,0,0,0,0,1,12|49,5,0,0,0,0,1,12|50,2,0,0,0,0,1,11|51,3,0,0,0,0,1,10|52,1,0,0,0,0,1,4|53,4,0,0,0,0,1,9|54,5,0,0,0,0,1,4|55,1,0,0,0,0,1,4|56,4,0,0,0,0,1,18|57,1,0,0,0,0,1,17|58,4,0,0,0,0,1,3|59,4,0,0,0,0,1,3|60,1,0,0,0,0,1,12|61,1,0,0,0,0,1,15|62,1,0,0,0,0,1,5|63,4,0,0,0,0,1,5|64,5,0,0,0,0,1,7|65,2,0,0,0,0,1,6|66,4,0,0,0,0,1,4|67,1,0,0,0,0,1,12|68,5,0,0,0,0,1,14|69,2,0,0,0,0,1,1|70,5,0,0,0,0,1,9|71,1,0,0,0,0,1,6|72,2,0,0,0,0,1,5|73,1,0,0,0,0,1,11|74,1,0,0,0,0,1,10|75,3,0,0,0,0,1,7|76,5,0,0,0,0,1,11|77,2,0,0,0,0,1,14|78,1,0,0,0,0,1,2|79,3,0,0,0,0,1,17|80,2,0,0,0,0,1,16|81,4,0,0,0,0,1,16|82,2,0,0,0,0,1,17|83,2,0,0,0,0,1,10|84,5,0,0,0,0,1,15|85,1,0,0,0,0,1,14|86,4,0,0,0,0,1,10|87,4,0,0,0,0,1,5|88,5,0,0,0,0,1,16|89,2,0,0,0,0,1,14|90,4,0,0,0,0,1,6|91,5,0,0,0,0,1,13|92,2,0,0,0,0,1,10|93,1,0,0,0,0,1,13|94,5,0,0,0,0,1,7|95,3,0,0,0,0,1,1|96,2,0,0,0,0,1,3|97,1,0,0,0,0,1,13|98,3,0,0,0,0,1,3|99,3,0,0,0,0,1,11|100,1,0,0,0,0,1,11|101,3,0,0,0,0,1,3|102,5,0,0,0,0,1,13|103,4,0,0,0,0,1,17|104,3,0,0,0,0,1,6|105,3,0,0,0,0,1,15|106,1,0,0,0,0,1,18|107,3,0,0,0,0,1,12|108,3,0,0,0,0,1,15|109,1,0,0,0,0,1,5|110,5,0,0,0,0,1,14|111,2,0,0,0,0,1,10|112,3,0,0,0,0,1,11|113,5,0,0,0,0,1,5|114,1,0,0,0,0,1,10|115,2,0,0,0,0,1,9|116,1,0,0,0,0,1,4|117,2,0,0,0,0,1,14|118,1,0,0,0,0,1,1|119,5,0,0,0,0,1,11|120,2,0,0,0,0,1,12|121,2,0,0,0,0,1,2|122,2,0,0,0,0,1,5|123,3,0,0,0,0,1,18|124,2,0,0,0,0,1,1|125,2,0,0,0,0,1,10|126,2,0,0,0,0,1,4|127,2,0,0,0,0,1,16|128,2,0,0,0,0,1,13|129,1,0,0,0,0,1,2|130,5,0,0,0,0,1,15|131,5,0,0,0,0,1,18|132,3,0,0,0,0,1,8|133,3,0,0,0,0,1,9|134,3,0,0,0,0,1,13|135,3,0,0,0,0,1,4|136,5,0,0,0,0,1,3|137,1,0,0,0,0,1,8|138,5,0,0,0,0,1,6|139,2,0,0,0,0,1,17|140,3,0,0,0,0,1,9|141,3,0,0,0,0,1,3|142,5,0,0,0,0,1,10|143,5,0,0,0,0,1,8|144,3,0,0,0,0,1,5|145,4,0,0,0,0,1,7|146,2,0,0,0,0,1,9|147,4,0,0,0,0,1,15|148,2,0,0,0,0,1,14|149,2,0,0,0,0,1,7|150,4,0,0,0,0,1,8|151,4,0,0,0,0,1,15|152,3,0,0,0,0,1,5|153,5,0,0,0,0,1,7|154,1,0,0,0,0,1,4|155,3,0,0,0,0,1,14|156,3,0,0,0,0,1,17|157,4,0,0,0,0,1,17|158,3,0,0,0,0,1,16|159,5,0,0,0,0,1,10|160,2,0,0,0,0,1,7|161,5,0,0,0,0,1,17|162,1,0,0,0,0,1,12|163,1,0,0,0,0,1,15|164,2,0,0,0,0,1,16|165,5,0,0,0,0,1,4|166,2,0,0,0,0,1,14|167,1,0,0,0,0,1,12|168,1,0,0,0,0,1,8|169,4,0,0,0,0,1,9|170,4,0,0,0,0,1,7|171,4,0,0,0,0,1,11|172,1,0,0,0,0,1,12|173,2,0,0,0,0,1,13|174,4,0,0,0,0,1,4|175,4,0,0,0,0,1,14|176,4,0,0,0,0,1,15|177,5,0,0,0,0,1,10|178,1,0,0,0,0,1,1|179,3,0,0,0,0,1,14|180,1,0,0,0,0,1,9|181,5,0,0,0,0,1,16|182,5,0,0,0,0,1,15|183,2,0,0,0,0,1,15|184,3,0,0,0,0,1,4|185,5,0,0,0,0,1,7|186,2,0,0,0,0,1,12|187,2,0,0,0,0,1,18|188,5,0,0,0,0,1,18|189,5,0,0,0,0,1,11|190,4,0,0,0,0,1,10|191,1,0,0,0,0,1,16|192,2,0,0,0,0,1,8|193,5,0,0,0,0,1,10|194,2,0,0,0,0,1,10|195,2,0,0,0,0,1,2|196,2,0,0,0,0,1,15|197,3,0,0,0,0,1,11|198,1,0,0,0,0,1,6|199,1,0,0,0,0,1,12|200,1,0,0,0,0,1,12|201,2,0,0,0,0,1,12|202,3,0,0,0,0,1,4|203,2,0,0,0,0,1,6|204,2,0,0,0,0,1,13|205,3,0,0,0,0,1,11|206,5,0,0,0,0,1,15|207,3,0,0,0,0,1,12|208,3,0,0,0,0,1,11|209,1,0,0,0,0,1,9|210,2,0,0,0,0,1,15|211,3,0,0,0,0,1,8|212,3,0,0,0,0,1,11|213,5,0,0,0,0,1,11|214,2,0,0,0,0,1,5|215,3,0,0,0,0,1,3|216,4,0,0,0,0,1,18|217,4,0,0,0,0,1,2|218,2,0,0,0,0,1,10|219,4,0,0,0,0,1,2|220,2,0,0,0,0,1,3|221,4,0,0,0,0,1,1|222,2,0,0,0,0,1,7|223,4,0,0,0,0,1,4|224,5,0,0,0,0,1,16|225,3,0,0,0,0,1,2|226,5,0,0,0,0,1,9|227,4,0,0,0,0,1,1|228,3,0,0,0,0,1,8|229,2,0,0,0,0,1,18|230,4,0,0,0,0,1,12|231,3,0,0,0,0,1,12|232,3,0,0,0,0,1,3|233,4,0,0,0,0,1,12|234,2,0,0,0,0,1,8|235,1,0,0,0,0,1,3|236,5,0,0,0,0,1,15|237,5,0,0,0,0,1,5|238,2,0,0,0,0,1,15|239,1,0,0,0,0,1,2|240,4,0,0,0,0,1,3|241,2,0,0,0,0,1,10|242,4,0,0,0,0,1,9|243,1,0,0,0,0,1,3|244,1,0,0,0,0,1,18|245,4,0,0,0,0,1,17|246,2,0,0,0,0,1,7|247,2,0,0,0,0,1,10|248,2,0,0,0,0,1,12|249,5,0,0,0,0,1,1|250,3,0,0,0,0,1,2|251,4,0,0,0,0,1,15|252,1,0,0,0,0,1,9|253,2,0,0,0,0,1,1|254,2,0,0,0,0,1,6|255,1,0,0,0,0,1,14|256,1,0,0,0,0,1,17|257,4,0,0,0,0,1,7|258,2,0,0,0,0,1,7|259,1,0,0,0,0,1,13|260,5,0,0,0,0,1,7|261,3,0,0,0,0,1,1|262,1,0,0,0,0,1,17|263,4,0,0,0,0,1,4|264,2,0,0,0,0,1,2|265,2,0,0,0,0,1,16|266,2,0,0,0,0,1,18|267,1,0,0,0,0,1,12|268,2,0,0,0,0,1,10|269,1,0,0,0,0,1,4|270,2,0,0,0,0,1,7|271,5,0,0,0,0,1,2|272,1,0,0,0,0,1,17|273,2,0,0,0,0,1,16|274,5,0,0,0,0,1,1|275,5,0,0,0,0,1,2|276,5,0,0,0,0,1,15|277,1,0,0,0,0,1,10|278,3,0,0,0,0,1,13|279,5,0,0,0,0,1,17|280,5,0,0,0,0,1,14|281,1,0,0,0,0,1,5|282,5,0,0,0,0,1,6|283,2,0,0,0,0,1,1|284,2,0,0,0,0,1,5|285,5,0,0,0,0,1,13|286,4,0,0,0,0,1,8|287,4,0,0,0,0,1,17|288,3,0,0,0,0,1,8|289,5,0,0,0,0,1,15|290,3,0,0,0,0,1,17|291,1,0,0,0,0,1,16|292,1,0,0,0,0,1,3|293,4,0,0,0,0,1,18|294,4,0,0,0,0,1,8|295,4,0,0,0,0,1,10|296,2,0,0,0,0,1,14|297,3,0,0,0,0,1,6|298,1,0,0,0,0,1,4|299,5,0,0,0,0,1,2|300,3,0,0,0,0,1,3|301,3,0,0,0,0,1,1|302,3,0,0,0,0,1,14|303,3,0,0,0,0,1,15|304,2,0,0,0,0,1,16|305,4,0,0,0,0,1,5|306,5,0,0,0,0,1,11|307,5,0,0,0,0,1,4|308,1,0,0,0,0,1,2|309,5,0,0,0,0,1,16|310,2,0,0,0,0,1,15|311,1,0,0,0,0,1,13|312,5,0,0,0,0,1,18|313,2,0,0,0,0,1,8|314,3,0,0,0,0,1,9|315,3,0,0,0,0,1,9|316,5,0,0,0,0,1,10|317,2,0,0,0,0,1,18|318,4,0,0,0,0,1,3|319,3,0,0,0,0,1,14|320,1,0,0,0,0,1,17|321,3,0,0,0,0,1,16|322,2,0,0,0,0,1,6|323,1,0,0,0,0,1,4|324,4,0,0,0,0,1,13|325,4,0,0,0,0,1,5|326,4,0,0,0,0,1,18|327,5,0,0,0,0,1,16|328,1,0,0,0,0,1,1|329,2,0,0,0,0,1,4|330,4,0,0,0,0,1,9|331,5,0,0,0,0,1,6|332,3,0,0,0,0,1,2|333,4,0,0,0,0,1,4|334,4,0,0,0,0,1,9|335,1,0,0,0,0,1,14|336,4,0,0,0,0,1,1|337,2,0,0,0,0,1,7|338,2,0,0,0,0,1,13|339,4,0,0,0,0,1,13|340,3,0,0,0,0,1,8|341,5,0,0,0,0,1,11|342,3,0,0,0,0,1,16|343,4,0,0,0,0,1,14|344,5,0,0,0,0,1,16|345,1,0,0,0,0,1,18|346,5,0,0,0,0,1,10|347,1,0,0,0,0,1,11|348,3,0,0,0,0,1,6|349,2,0,0,0,0,1,9|350,5,0,0,0,0,1,15|351,5,0,0,0,0,1,14|352,3,0,0,0,0,1,18|353,4,0,0,0,0,1,3|354,3,0,0,0,0,1,6|355,5,0,0,0,0,1,2|356,5,0,0,0,0,1,2|357,1,0,0,0,0,1,18|358,3,0,0,0,0,1,4|359,3,0,0,0,0,1,13|360,3,0,0,0,0,1,6|361,1,0,0,0,0,1,17|362,2,0,0,0,0,1,8|363,4,0,0,0,0,1,3|364,1,0,0,0,0,1,1|365,2,0,0,0,0,1,8|366,4,0,0,0,0,1,4|367,4,0,0,0,0,1,15|368,3,0,0,0,0,1,13|369,4,0,0,0,0,1,18|370,4,0,0,0,0,1,18|371,5,0,0,0,0,1,3|372,5,0,0,0,0,1,10|373,5,0,0,0,0,1,8|374,3,0,0,0,0,1,12|375,4,0,0,0,0,1,6|376,1,0,0,0,0,1,12|377,3,0,0,0,0,1,12|378,3,0,0,0,0,1,7|379,4,0,0,0,0,1,17|380,4,0,0,0,0,1,16|381,4,0,0,0,0,1,14|382,2,0,0,0,0,1,4|383,5,0,0,0,0,1,4|384,1,0,0,0,0,1,4|385,3,0,0,0,0,1,16|386,4,0,0,0,0,1,12|387,2,0,0,0,0,1,9|388,4,0,0,0,0,1,12|389,3,0,0,0,0,1,5|390,4,0,0,0,0,1,1|391,4,0,0,0,0,1,16|392,3,0,0,0,0,1,11|393,2,0,0,0,0,1,6|394,3,0,0,0,0,1,10|395,3,0,0,0,0,1,10|396,3,0,0,0,0,1,9|397,3,0,0,0,0,1,8|398,3,0,0,0,0,1,7|399,5,0,0,0,0,1,14|400,3,0,0,0,0,1,3|401,1,0,0,0,0,1,8|402,5,0,0,0,0,1,11|403,1,0,0,0,0,1,11|404,2,0,0,0,0,1,3|405,4,0,0,0,0,1,1|406,2,0,0,0,0,1,2|407,2,0,0,0,0,1,1|408,2,0,0,0,0,1,2|409,3,0,0,0,0,1,1|410,2,0,0,0,0,1,16|411,2,0,0,0,0,1,17|412,2,0,0,0,0,1,1|413,2,0,0,0,0,1,8|414,2,0,0,0,0,1,14|415,5,0,0,0,0,1,9|416,2,0,0,0,0,1,8|417,2,0,0,0,0,1,9|418,2,0,0,0,0,1,9|419,1,0,0,0,0,1,2|420,1,0,0,0,0,1,9|421,1,0,0,0,0,1,12|422,5,0,0,0,0,1,16|423,2,0,0,0,0,1,12|424,3,0,0,0,0,1,5|425,2,0,0,0,0,1,12|426,4,0,0,0,0,1,17|427,2,0,0,0,0,1,5|428,1,0,0,0,0,1,18|429,2,0,0,0,0,1,12|430,5,0,0,0,0,1,8|431,1,0,0,0,0,1,10|432,1,0,0,0,0,1,12|433,5,0,0,0,0,1,7|434,1,0,0,0,0,1,11|435,2,0,0,0,0,1,10|436,2,0,0,0,0,1,5|437,3,0,0,0,0,1,3|438,4,0,0,0,0,1,15|439,4,0,0,0,0,1,2|440,5,0,0,0,0,1,3|441,4,0,0,0,0,1,18|442,1,0,0,0,0,1,18|443,1,0,0,0,0,1,3|444,3,0,0,0,0,1,12|445,3,0,0,0,0,1,18|446,4,0,0,0,0,1,7|447,4,0,0,0,0,1,5|448,2,0,0,0,0,1,2|449,2,0,0,0,0,1,5|450,1,0,0,0,0,1,7|451,4,0,0,0,0,1,15|452,3,0,0,0,0,1,2|453,1,0,0,0,0,1,15|454,3,0,0,0,0,1,13|455,5,0,0,0,0,1,14|456,1,0,0,0,0,1,2|457,5,0,0,0,0,1,5|458,5,0,0,0,0,1,1|459,2,0,0,0,0,1,4|460,3,0,0,0,0,1,2|461,1,0,0,0,0,1,7|462,3,0,0,0,0,1,15|463,3,0,0,0,0,1,11|464,4,0,0,0,0,1,11|465,2,0,0,0,0,1,7|466,1,0,0,0,0,1,9|467,1,0,0,0,0,1,17|468,2,0,0,0,0,1,4|469,5,0,0,0,0,1,14|470,3,0,0,0,0,1,3|471,4,0,0,0,0,1,3|472,5,0,0,0,0,1,15|473,2,0,0,0,0,1,10|474,4,0,0,0,0,1,3|475,2,0,0,0,0,1,16|476,4,0,0,0,0,1,5|477,5,0,0,0,0,1,6|478,3,0,0,0,0,1,2|479,5,0,0,0,0,1,10|480,3,0,0,0,0,1,6|481,2,0,0,0,0,1,18|482,3,0,0,0,0,1,18|483,5,0,0,0,0,1,9|484,3,0,0,0,0,1,17|485,1,0,0,0,0,1,14|486,4,0,0,0,0,1,15|487,5,0,0,0,0,1,17|488,4,0,0,0,0,1,6|489,4,0,0,0,0,1,8|490,5,0,0,0,0,1,5|491,3,0,0,0,0,1,9|492,4,0,0,0,0,1,7|493,5,0,0,0,0,1,9|494,5,0,0,0,0,1,5|495,3,0,0,0,0,1,8|496,5,0,0,0,0,1,8|497,5,0,0,0,0,1,8|498,2,0,0,0,0,1,2|499,4,0,0,0,0,1,9|500,2,0,0,0,0,1,4|501,3,0,0,0,0,1,2|502,2,0,0,0,0,1,15|503,5,0,0,0,0,1,13|504,2,0,0,0,0,1,16|505,2,0,0,0,0,1,10|506,4,0,0,0,0,1,11|507,5,0,0,0,0,1,14|508,3,0,0,0,0,1,13|509,1,0,0,0,0,1,3|510,3,0,0,0,0,1,8|511,5,0,0,0,0,1,18|512,5,0,0,0,0,1,6|513,5,0,0,0,0,1,6|514,3,0,0,0,0,1,3|515,1,0,0,0,0,1,13|516,1,0,0,0,0,1,6|517,4,0,0,0,0,1,14|518,4,0,0,0,0,1,1|519,1,0,0,0,0,1,8|520,2,0,0,0,0,1,7|521,1,0,0,0,0,1,11|522,3,0,0,0,0,1,6|523,3,0,0,0,0,1,17|524,4,0,0,0,0,1,13|525,5,0,0,0,0,1,8|526,2,0,0,0,0,1,18|527,3,0,0,0,0,1,5|528,4,0,0,0,0,1,17|529,1,0,0,0,0,1,1|530,4,0,0,0,0,1,16|531,2,0,0,0,0,1,13|532,3,0,0,0,0,1,4|533,5,0,0,0,0,1,13|534,1,0,0,0,0,1,4|535,5,0,0,0,0,1,1|536,3,0,0,0,0,1,13|537,4,0,0,0,0,1,1|538,5,0,0,0,0,1,14|539,1,0,0,0,0,1,6|540,5,0,0,0,0,1,9|541,4,0,0,0,0,1,13|542,1,0,0,0,0,1,18|543,4,0,0,0,0,1,7|544,2,0,0,0,0,1,11|545,4,0,0,0,0,1,16|546,4,0,0,0,0,1,17|547,5,0,0,0,0,1,6|548,2,0,0,0,0,1,12|549,2,0,0,0,0,1,18|550,2,0,0,0,0,1,10|551,1,0,0,0,0,1,4|552,1,0,0,0,0,1,1|553,5,0,0,0,0,1,2|554,3,0,0,0,0,1,7|555,5,0,0,0,0,1,8|556,2,0,0,0,0,1,5|557,5,0,0,0,0,1,8|558,4,0,0,0,0,1,7|559,4,0,0,0,0,1,17|560,4,0,0,0,0,1,13|561,2,0,0,0,0,1,11|562,2,0,0,0,0,1,1|563,3,0,0,0,0,1,6|564,1,0,0,0,0,1,5|565,5,0,0,0,0,1,18|566,3,0,0,0,0,1,13|567,3,0,0,0,0,1,14|568,4,0,0,0,0,1,11|569,3,0,0,0,0,1,3|570,4,0,0,0,0,1,17|571,1,0,0,0,0,1,6|572,2,0,0,0,0,1,11|573,3,0,0,0,0,1,18|574,1,0,0,0,0,1,7|575,5,0,0,0,0,1,11|576,3,0,0,0,0,1,5|577,3,0,0,0,0,1,17|578,5,0,0,0,0,1,9|579,5,0,0,0,0,1,2|580,1,0,0,0,0,1,5|581,4,0,0,0,0,1,17|582,4,0,0,0,0,1,16|583,5,0,0,0,0,1,6|584,5,0,0,0,0,1,15|585,1,0,0,0,0,1,3|586,2,0,0,0,0,1,13|587,1,0,0,0,0,1,6|588,4,0,0,0,0,1,16|589,5,0,0,0,0,1,5|590,4,0,0,0,0,1,6|];
